c FILE /home/rafael/Documents/HappySet/MIHS/inputs/happygen/output/graph_scale_free_k4_p0.1_v100_20241127_083821.txt
c SOURCE This is a scale-free graph formed for the happy graph colouring problem.
c DESCRIPTION It was generated using the problem generator of Rhyd Lewis
c
c GRAPH STATS
c Seed                             = -850589884
c Number of Nodes                  = 100
c Number of colours k              = 4
c Number of pre-assignments        = 10
c Number of links per new node     = 5
c Density                          = 0.0979798
c 
c The degrees of nodes 1 to 100, respectively, are as follows 
c [42, 39, 32, 32, 26, 24, 24, 24, 23, 22, 16, 16, 16, 15, 15, 14, 14, 14, 14, 13, 13, 12, 11, 10, 10, 10, 
c  10, 9, 9, 9, 9, 9, 8, 8, 8, 8, 8, 8, 8, 8, 8, 7, 7, 7, 7, 7, 7, 7, 7, 7, 7, 
c  7, 7, 7, 7, 7, 7, 6, 6, 6, 6, 6, 6, 6, 6, 6, 6, 6, 6, 6, 6, 6, 5, 5, 5, 5, 
c  5, 5, 5, 5, 5, 5, 5, 5, 5, 5, 5, 5, 5, 5, 5, 5, 5, 5, 5, 5, 5, 5, 5, 5] 
c  
p edge 100 485 4
e 1 2
e 1 3
e 1 4
e 1 5
e 1 6
e 1 7
e 1 8
e 1 10
e 1 11
e 1 12
e 1 14
e 1 15
e 1 17
e 1 18
e 1 22
e 1 30
e 1 31
e 1 35
e 1 36
e 1 37
e 1 39
e 1 41
e 1 42
e 1 43
e 1 44
e 1 47
e 1 49
e 1 56
e 1 57
e 1 58
e 1 60
e 1 62
e 1 63
e 1 69
e 1 70
e 1 71
e 1 74
e 1 77
e 1 78
e 1 80
e 1 83
e 1 89
e 2 3
e 2 4
e 2 5
e 2 6
e 2 9
e 2 10
e 2 15
e 2 16
e 2 17
e 2 19
e 2 23
e 2 25
e 2 26
e 2 27
e 2 28
e 2 29
e 2 30
e 2 32
e 2 33
e 2 35
e 2 36
e 2 42
e 2 45
e 2 47
e 2 48
e 2 50
e 2 52
e 2 55
e 2 58
e 2 59
e 2 61
e 2 66
e 2 72
e 2 80
e 2 83
e 2 84
e 2 86
e 2 91
e 3 4
e 3 6
e 3 8
e 3 9
e 3 10
e 3 11
e 3 13
e 3 14
e 3 16
e 3 21
e 3 22
e 3 24
e 3 25
e 3 26
e 3 27
e 3 31
e 3 32
e 3 44
e 3 47
e 3 58
e 3 60
e 3 63
e 3 64
e 3 67
e 3 71
e 3 72
e 3 74
e 3 78
e 3 94
e 3 96
e 4 5
e 4 6
e 4 10
e 4 14
e 4 15
e 4 16
e 4 17
e 4 18
e 4 19
e 4 21
e 4 23
e 4 24
e 4 25
e 4 34
e 4 36
e 4 38
e 4 41
e 4 46
e 4 49
e 4 58
e 4 61
e 4 62
e 4 63
e 4 68
e 4 74
e 4 76
e 4 86
e 4 97
e 4 98
e 5 6
e 5 9
e 5 12
e 5 14
e 5 17
e 5 24
e 5 29
e 5 30
e 5 34
e 5 40
e 5 48
e 5 52
e 5 58
e 5 60
e 5 66
e 5 69
e 5 75
e 5 76
e 5 78
e 5 83
e 5 88
e 5 94
e 5 100
e 6 7
e 6 9
e 6 10
e 6 16
e 6 20
e 6 21
e 6 26
e 6 28
e 6 30
e 6 33
e 6 37
e 6 48
e 6 50
e 6 58
e 6 60
e 6 65
e 6 82
e 6 92
e 6 95
e 7 10
e 7 15
e 7 16
e 7 19
e 7 20
e 7 25
e 7 27
e 7 31
e 7 33
e 7 35
e 7 38
e 7 47
e 7 62
e 7 66
e 7 70
e 7 71
e 7 78
e 7 81
e 7 84
e 7 87
e 7 88
e 7 95
e 8 9
e 8 13
e 8 15
e 8 22
e 8 23
e 8 24
e 8 28
e 8 31
e 8 32
e 8 33
e 8 43
e 8 45
e 8 46
e 8 47
e 8 51
e 8 54
e 8 63
e 8 72
e 8 73
e 8 80
e 8 83
e 8 85
e 9 10
e 9 14
e 9 15
e 9 16
e 9 20
e 9 22
e 9 29
e 9 34
e 9 40
e 9 42
e 9 49
e 9 62
e 9 63
e 9 76
e 9 81
e 9 89
e 9 91
e 9 100
e 10 11
e 10 12
e 10 15
e 10 33
e 10 34
e 10 36
e 10 37
e 10 38
e 10 46
e 10 48
e 10 51
e 10 52
e 10 56
e 10 90
e 10 99
e 11 12
e 11 14
e 11 17
e 11 18
e 11 20
e 11 23
e 11 29
e 11 38
e 11 50
e 11 67
e 11 75
e 11 95
e 11 97
e 12 13
e 12 18
e 12 19
e 12 25
e 12 39
e 12 40
e 12 41
e 12 51
e 12 59
e 12 61
e 12 69
e 12 86
e 13 22
e 13 24
e 13 38
e 13 48
e 13 51
e 13 52
e 13 55
e 13 67
e 13 73
e 13 77
e 13 81
e 13 82
e 13 92
e 14 17
e 14 18
e 14 26
e 14 28
e 14 42
e 14 43
e 14 81
e 14 85
e 14 96
e 15 28
e 15 31
e 15 32
e 15 33
e 15 36
e 15 53
e 15 55
e 15 64
e 16 19
e 16 20
e 16 41
e 16 54
e 16 74
e 16 75
e 16 76
e 16 84
e 17 18
e 17 24
e 17 35
e 17 42
e 17 67
e 17 75
e 17 82
e 17 94
e 18 26
e 18 34
e 18 39
e 18 45
e 18 50
e 18 69
e 18 70
e 18 79
e 19 40
e 19 43
e 19 52
e 19 59
e 19 61
e 19 70
e 19 72
e 19 77
e 19 86
e 20 22
e 20 27
e 20 35
e 20 49
e 20 54
e 20 59
e 20 90
e 20 91
e 21 24
e 21 25
e 21 44
e 21 45
e 21 60
e 21 68
e 21 82
e 21 85
e 21 97
e 21 98
e 22 53
e 22 65
e 22 75
e 22 79
e 22 80
e 22 90
e 23 35
e 23 39
e 23 56
e 23 57
e 23 64
e 23 66
e 23 95
e 24 30
e 24 74
e 24 89
e 25 29
e 25 44
e 25 65
e 25 72
e 26 57
e 26 76
e 26 78
e 26 85
e 26 100
e 27 28
e 27 41
e 27 44
e 27 49
e 27 73
e 27 96
e 28 37
e 28 43
e 28 98
e 29 37
e 29 67
e 29 89
e 29 90
e 30 50
e 30 54
e 30 62
e 30 91
e 31 46
e 31 79
e 31 80
e 31 96
e 32 46
e 32 55
e 32 57
e 32 70
e 32 90
e 33 39
e 33 82
e 34 40
e 34 64
e 34 65
e 35 65
e 35 98
e 36 57
e 36 73
e 36 86
e 37 46
e 37 87
e 37 95
e 38 61
e 38 64
e 38 73
e 39 77
e 39 93
e 39 99
e 40 83
e 40 97
e 40 100
e 41 55
e 41 79
e 41 99
e 42 45
e 42 68
e 43 59
e 43 68
e 44 77
e 44 100
e 45 79
e 45 94
e 46 87
e 47 51
e 47 53
e 48 53
e 48 71
e 49 53
e 49 85
e 50 89
e 50 99
e 51 84
e 51 99
e 52 81
e 52 84
e 53 56
e 53 93
e 54 59
e 54 69
e 54 88
e 55 88
e 55 96
e 56 69
e 56 71
e 56 92
e 57 88
e 57 92
e 60 87
e 61 66
e 62 68
e 63 92
e 64 93
e 65 91
e 66 93
e 67 93
e 68 94
e 70 98
e 71 87
e 72 97
n 5 2
n 20 4
n 27 4
n 30 2
n 33 3
n 38 1
n 47 4
n 48 2
n 57 3
n 92 3
